c nIsolatedPIs 0
c maxPI 32
p cnf 236 613
c gate 33 2 -18 0
2 -33 0
-18 -33 0
-2 18 33 0
c gate 34 -1 17 0
-1 -34 0
17 -34 0
1 -17 34 0
c gate 35 33 34 0
33 -35 0
34 -35 0
-33 -34 35 0
c gate 36 -14 -30 0
-14 -36 0
-30 -36 0
14 30 36 0
c gate 37 14 30 0
14 -37 0
30 -37 0
-14 -30 37 0
c gate 38 -36 -37 0
-36 -38 0
-37 -38 0
36 37 38 0
c gate 39 12 28 0
12 -39 0
28 -39 0
-12 -28 39 0
c gate 40 13 29 0
13 -40 0
29 -40 0
-13 -29 40 0
c gate 41 -39 -40 0
-39 -41 0
-40 -41 0
39 40 41 0
c gate 42 38 41 0
38 -42 0
41 -42 0
-38 -41 42 0
c gate 43 -38 -41 0
-38 -43 0
-41 -43 0
38 41 43 0
c gate 44 -42 -43 0
-42 -44 0
-43 -44 0
42 43 44 0
c gate 45 -13 -29 0
-13 -45 0
-29 -45 0
13 29 45 0
c gate 46 11 27 0
11 -46 0
27 -46 0
-11 -27 46 0
c gate 47 -10 -26 0
-10 -47 0
-26 -47 0
10 26 47 0
c gate 48 10 26 0
10 -48 0
26 -48 0
-10 -26 48 0
c gate 49 9 25 0
9 -49 0
25 -49 0
-9 -25 49 0
c gate 50 -48 -49 0
-48 -50 0
-49 -50 0
48 49 50 0
c gate 51 8 24 0
8 -51 0
24 -51 0
-8 -24 51 0
c gate 52 -7 -23 0
-7 -52 0
-23 -52 0
7 23 52 0
c gate 53 -51 52 0
-51 -53 0
52 -53 0
51 -52 53 0
c gate 54 -8 -24 0
-8 -54 0
-24 -54 0
8 24 54 0
c gate 55 -9 -25 0
-9 -55 0
-25 -55 0
9 25 55 0
c gate 56 -54 -55 0
-54 -56 0
-55 -56 0
54 55 56 0
c gate 57 -53 56 0
-53 -57 0
56 -57 0
53 -56 57 0
c gate 58 50 -57 0
50 -58 0
-57 -58 0
-50 57 58 0
c gate 59 -47 -58 0
-47 -59 0
-58 -59 0
47 58 59 0
c gate 60 -6 -22 0
-6 -60 0
-22 -60 0
6 22 60 0
c gate 61 5 21 0
5 -61 0
21 -61 0
-5 -21 61 0
c gate 62 1 17 0
1 -62 0
17 -62 0
-1 -17 62 0
c gate 63 2 62 0
2 -63 0
62 -63 0
-2 -62 63 0
c gate 64 -18 -63 0
-18 -64 0
-63 -64 0
18 63 64 0
c gate 65 -2 -62 0
-2 -65 0
-62 -65 0
2 62 65 0
c gate 66 -3 -19 0
-3 -66 0
-19 -66 0
3 19 66 0
c gate 67 -65 -66 0
-65 -67 0
-66 -67 0
65 66 67 0
c gate 68 -64 67 0
-64 -68 0
67 -68 0
64 -67 68 0
c gate 69 4 20 0
4 -69 0
20 -69 0
-4 -20 69 0
c gate 70 3 19 0
3 -70 0
19 -70 0
-3 -19 70 0
c gate 71 -69 -70 0
-69 -71 0
-70 -71 0
69 70 71 0
c gate 72 -68 71 0
-68 -72 0
71 -72 0
68 -71 72 0
c gate 73 -4 -20 0
-4 -73 0
-20 -73 0
4 20 73 0
c gate 74 -5 -21 0
-5 -74 0
-21 -74 0
5 21 74 0
c gate 75 -73 -74 0
-73 -75 0
-74 -75 0
73 74 75 0
c gate 76 -72 75 0
-72 -76 0
75 -76 0
72 -75 76 0
c gate 77 -61 -76 0
-61 -77 0
-76 -77 0
61 76 77 0
c gate 78 -60 -77 0
-60 -78 0
-77 -78 0
60 77 78 0
c gate 79 7 -23 0
7 -79 0
-23 -79 0
-7 23 79 0
c gate 80 -7 23 0
-7 -80 0
23 -80 0
7 -23 80 0
c gate 81 -79 -80 0
-79 -81 0
-80 -81 0
79 80 81 0
c gate 82 6 22 0
6 -82 0
22 -82 0
-6 -22 82 0
c gate 83 -81 -82 0
-81 -83 0
-82 -83 0
81 82 83 0
c gate 84 -78 83 0
-78 -84 0
83 -84 0
78 -83 84 0
c gate 85 -51 -54 0
-51 -85 0
-54 -85 0
51 54 85 0
c gate 86 84 85 0
84 -86 0
85 -86 0
-84 -85 86 0
c gate 87 50 86 0
50 -87 0
86 -87 0
-50 -86 87 0
c gate 88 59 -87 0
59 -88 0
-87 -88 0
-59 87 88 0
c gate 89 -46 -88 0
-46 -89 0
-88 -89 0
46 88 89 0
c gate 90 -11 -27 0
-11 -90 0
-27 -90 0
11 27 90 0
c gate 91 -12 -28 0
-12 -91 0
-28 -91 0
12 28 91 0
c gate 92 -39 -91 0
-39 -92 0
-91 -92 0
39 91 92 0
c gate 93 -90 92 0
-90 -93 0
92 -93 0
90 -92 93 0
c gate 94 -89 93 0
-89 -94 0
93 -94 0
89 -93 94 0
c gate 95 41 -94 0
41 -95 0
-94 -95 0
-41 94 95 0
c gate 96 -45 -95 0
-45 -96 0
-95 -96 0
45 95 96 0
c gate 97 38 -96 0
38 -97 0
-96 -97 0
-38 96 97 0
c gate 98 -38 96 0
-38 -98 0
96 -98 0
38 -96 98 0
c gate 99 -97 -98 0
-97 -99 0
-98 -99 0
97 98 99 0
c gate 100 -44 99 0
-44 -100 0
99 -100 0
44 -99 100 0
c gate 101 44 -99 0
44 -101 0
-99 -101 0
-44 99 101 0
c gate 102 -100 -101 0
-100 -102 0
-101 -102 0
100 101 102 0
c gate 103 59 93 0
59 -103 0
93 -103 0
-59 -93 103 0
c gate 104 89 103 0
89 -104 0
103 -104 0
-89 -103 104 0
c gate 105 102 104 0
102 -105 0
104 -105 0
-102 -104 105 0
c gate 106 -15 -31 0
-15 -106 0
-31 -106 0
15 31 106 0
c gate 107 15 31 0
15 -107 0
31 -107 0
-15 -31 107 0
c gate 108 -106 -107 0
-106 -108 0
-107 -108 0
106 107 108 0
c gate 109 -36 -97 0
-36 -109 0
-97 -109 0
36 97 109 0
c gate 110 108 -109 0
108 -110 0
-109 -110 0
-108 109 110 0
c gate 111 -106 -110 0
-106 -111 0
-110 -111 0
106 110 111 0
c gate 112 -16 -32 0
-16 -112 0
-32 -112 0
16 32 112 0
c gate 113 16 32 0
16 -113 0
32 -113 0
-16 -32 113 0
c gate 114 -112 -113 0
-112 -114 0
-113 -114 0
112 113 114 0
c gate 115 -111 114 0
-111 -115 0
114 -115 0
111 -114 115 0
c gate 116 111 -114 0
111 -116 0
-114 -116 0
-111 114 116 0
c gate 117 -115 -116 0
-115 -117 0
-116 -117 0
115 116 117 0
c gate 118 -36 -42 0
-36 -118 0
-42 -118 0
36 42 118 0
c gate 119 108 118 0
108 -119 0
118 -119 0
-108 -118 119 0
c gate 120 -107 -119 0
-107 -120 0
-119 -120 0
107 119 120 0
c gate 121 114 120 0
114 -121 0
120 -121 0
-114 -120 121 0
c gate 122 -114 -120 0
-114 -122 0
-120 -122 0
114 120 122 0
c gate 123 -121 -122 0
-121 -123 0
-122 -123 0
121 122 123 0
c gate 124 -117 123 0
-117 -124 0
123 -124 0
117 -123 124 0
c gate 125 117 -123 0
117 -125 0
-123 -125 0
-117 123 125 0
c gate 126 -108 -118 0
-108 -126 0
-118 -126 0
108 118 126 0
c gate 127 -119 -126 0
-119 -127 0
-126 -127 0
119 126 127 0
c gate 128 -108 109 0
-108 -128 0
109 -128 0
108 -109 128 0
c gate 129 -110 -128 0
-110 -129 0
-128 -129 0
110 128 129 0
c gate 130 -127 -129 0
-127 -130 0
-129 -130 0
127 129 130 0
c gate 131 127 129 0
127 -131 0
129 -131 0
-127 -129 131 0
c gate 132 -40 -45 0
-40 -132 0
-45 -132 0
40 45 132 0
c gate 133 94 -132 0
94 -133 0
-132 -133 0
-94 132 133 0
c gate 134 -101 -133 0
-101 -134 0
-133 -134 0
101 133 134 0
c gate 135 -131 -134 0
-131 -135 0
-134 -135 0
131 134 135 0
c gate 136 -130 -135 0
-130 -136 0
-135 -136 0
130 135 136 0
c gate 137 -125 -136 0
-125 -137 0
-136 -137 0
125 136 137 0
c gate 138 -124 -137 0
-124 -138 0
-137 -138 0
124 137 138 0
c gate 139 -105 138 0
-105 -139 0
138 -139 0
105 -138 139 0
c gate 140 -86 -94 0
-86 -140 0
-94 -140 0
86 94 140 0
c gate 141 102 140 0
102 -141 0
140 -141 0
-102 -140 141 0
c gate 142 -139 -141 0
-139 -142 0
-141 -142 0
139 141 142 0
c gate 143 -10 26 0
-10 -143 0
26 -143 0
10 -26 143 0
c gate 144 -9 25 0
-9 -144 0
25 -144 0
9 -25 144 0
c gate 145 -4 20 0
-4 -145 0
20 -145 0
4 -20 145 0
c gate 146 -3 19 0
-3 -146 0
19 -146 0
3 -19 146 0
c gate 147 -2 18 0
-2 -147 0
18 -147 0
2 -18 147 0
c gate 148 -34 -147 0
-34 -148 0
-147 -148 0
34 147 148 0
c gate 149 3 -19 0
3 -149 0
-19 -149 0
-3 19 149 0
c gate 150 -148 -149 0
-148 -150 0
-149 -150 0
148 149 150 0
c gate 151 -33 150 0
-33 -151 0
150 -151 0
33 -150 151 0
c gate 152 -146 -151 0
-146 -152 0
-151 -152 0
146 151 152 0
c gate 153 -145 152 0
-145 -153 0
152 -153 0
145 -152 153 0
c gate 154 4 -20 0
4 -154 0
-20 -154 0
-4 20 154 0
c gate 155 -61 -74 0
-61 -155 0
-74 -155 0
61 74 155 0
c gate 156 -154 -155 0
-154 -156 0
-155 -156 0
154 155 156 0
c gate 157 -153 156 0
-153 -157 0
156 -157 0
153 -156 157 0
c gate 158 -60 -82 0
-60 -158 0
-82 -158 0
60 82 158 0
c gate 159 -5 21 0
-5 -159 0
21 -159 0
5 -21 159 0
c gate 160 -158 -159 0
-158 -160 0
-159 -160 0
158 159 160 0
c gate 161 -157 160 0
-157 -161 0
160 -161 0
157 -160 161 0
c gate 162 -80 161 0
-80 -162 0
161 -162 0
80 -161 162 0
c gate 163 6 -22 0
6 -163 0
-22 -163 0
-6 22 163 0
c gate 164 -80 163 0
-80 -164 0
163 -164 0
80 -163 164 0
c gate 165 -79 -164 0
-79 -165 0
-164 -165 0
79 164 165 0
c gate 166 -162 165 0
-162 -166 0
165 -166 0
162 -165 166 0
c gate 167 -85 -166 0
-85 -167 0
-166 -167 0
85 166 167 0
c gate 168 8 -24 0
8 -168 0
-24 -168 0
-8 24 168 0
c gate 169 9 -25 0
9 -169 0
-25 -169 0
-9 25 169 0
c gate 170 -168 -169 0
-168 -170 0
-169 -170 0
168 169 170 0
c gate 171 -167 170 0
-167 -171 0
170 -171 0
167 -170 171 0
c gate 172 -144 -171 0
-144 -172 0
-171 -172 0
144 171 172 0
c gate 173 10 -26 0
10 -173 0
-26 -173 0
-10 26 173 0
c gate 174 -143 -173 0
-143 -174 0
-173 -174 0
143 173 174 0
c gate 175 -172 174 0
-172 -175 0
174 -175 0
172 -174 175 0
c gate 176 -143 -175 0
-143 -176 0
-175 -176 0
143 175 176 0
c gate 177 -46 -90 0
-46 -177 0
-90 -177 0
46 90 177 0
c gate 178 -176 -177 0
-176 -178 0
-177 -178 0
176 177 178 0
c gate 179 176 177 0
176 -179 0
177 -179 0
-176 -177 179 0
c gate 180 -178 -179 0
-178 -180 0
-179 -180 0
178 179 180 0
c gate 181 -170 174 0
-170 -181 0
174 -181 0
170 -174 181 0
c gate 182 -173 -181 0
-173 -182 0
-181 -182 0
173 181 182 0
c gate 183 177 -182 0
177 -183 0
-182 -183 0
-177 182 183 0
c gate 184 -180 -183 0
-180 -184 0
-183 -184 0
180 183 184 0
c gate 185 170 -174 0
170 -185 0
-174 -185 0
-170 174 185 0
c gate 186 -181 -185 0
-181 -186 0
-185 -186 0
181 185 186 0
c gate 187 172 -174 0
172 -187 0
-174 -187 0
-172 174 187 0
c gate 188 -175 -187 0
-175 -188 0
-187 -188 0
175 187 188 0
c gate 189 -186 -188 0
-186 -189 0
-188 -189 0
186 188 189 0
c gate 190 186 188 0
186 -190 0
188 -190 0
-186 -188 190 0
c gate 191 150 152 0
150 -191 0
152 -191 0
-150 -152 191 0
c gate 192 -145 156 0
-145 -192 0
156 -192 0
145 -156 192 0
c gate 193 191 192 0
191 -193 0
192 -193 0
-191 -192 193 0
c gate 194 -161 -193 0
-161 -194 0
-193 -194 0
161 193 194 0
c gate 195 81 -158 0
81 -195 0
-158 -195 0
-81 158 195 0
c gate 196 -194 -195 0
-194 -196 0
-195 -196 0
194 195 196 0
c gate 197 115 -120 0
115 -197 0
-120 -197 0
-115 120 197 0
c gate 198 -35 -197 0
-35 -198 0
-197 -198 0
35 197 198 0
c gate 199 -191 -198 0
-191 -199 0
-198 -199 0
191 198 199 0
c gate 200 111 121 0
111 -200 0
121 -200 0
-111 -121 200 0
c gate 201 198 -200 0
198 -201 0
-200 -201 0
-198 200 201 0
c gate 202 142 201 0
142 -202 0
201 -202 0
-142 -201 202 0
c gate 203 -199 -202 0
-199 -203 0
-202 -203 0
199 202 203 0
c gate 204 -191 203 0
-191 -204 0
203 -204 0
191 -203 204 0
c gate 205 194 -204 0
194 -205 0
-204 -205 0
-194 204 205 0
c gate 206 -196 -205 0
-196 -206 0
-205 -206 0
196 205 206 0
c gate 207 85 165 0
85 -207 0
165 -207 0
-85 -165 207 0
c gate 208 -166 207 0
-166 -208 0
207 -208 0
166 -207 208 0
c gate 209 206 -208 0
206 -209 0
-208 -209 0
-206 208 209 0
c gate 210 -167 -209 0
-167 -210 0
-209 -210 0
167 209 210 0
c gate 211 -144 -169 0
-144 -211 0
-169 -211 0
144 169 211 0
c gate 212 167 -211 0
167 -212 0
-211 -212 0
-167 211 212 0
c gate 213 -210 -212 0
-210 -213 0
-212 -213 0
210 212 213 0
c gate 214 -190 -213 0
-190 -214 0
-213 -214 0
190 213 214 0
c gate 215 -189 -214 0
-189 -215 0
-214 -215 0
189 214 215 0
c gate 216 -184 215 0
-184 -216 0
215 -216 0
184 -215 216 0
c gate 217 180 183 0
180 -217 0
183 -217 0
-180 -183 217 0
c gate 218 -184 -217 0
-184 -218 0
-217 -218 0
184 217 218 0
c gate 219 -176 -218 0
-176 -219 0
-218 -219 0
176 218 219 0
c gate 220 -216 -219 0
-216 -220 0
-219 -220 0
216 219 220 0
c gate 221 -38 -108 0
-38 -221 0
-108 -221 0
38 108 221 0
c gate 222 -92 -114 0
-92 -222 0
-114 -222 0
92 114 222 0
c gate 223 -132 222 0
-132 -223 0
222 -223 0
132 -222 223 0
c gate 224 221 223 0
221 -224 0
223 -224 0
-221 -223 224 0
c gate 225 178 224 0
178 -225 0
224 -225 0
-178 -224 225 0
c gate 226 -220 -225 0
-220 -226 0
-225 -226 0
220 225 226 0
c gate 227 -142 226 0
-142 -227 0
226 -227 0
142 -226 227 0
c gate 228 84 -104 0
84 -228 0
-104 -228 0
-84 104 228 0
c gate 229 -94 -228 0
-94 -229 0
-228 -229 0
94 228 229 0
c gate 230 102 229 0
102 -230 0
229 -230 0
-102 -229 230 0
c gate 231 138 -230 0
138 -231 0
-230 -231 0
-138 230 231 0
c gate 232 -226 -231 0
-226 -232 0
-231 -232 0
226 231 232 0
c gate 233 -227 -232 0
-227 -233 0
-232 -233 0
227 232 233 0
c gate 234 -35 233 0
-35 -234 0
233 -234 0
35 -233 234 0
c gate 235 35 -233 0
35 -235 0
-233 -235 0
-35 233 235 0
c gate 236 -234 -235 0
-234 -236 0
-235 -236 0
234 235 236 0
c PO
-236 0
